networks/zoo_14_17/zoo_14_17.sol
<?xml version = "1.0" encoding="UTF-8" standalone="yes"?>
<CPLEXSolution version="1.2">
 <header
   problemName="networks/zoo_14_17/zoo_14_17.lp"
   solutionName="incumbent"
   solutionIndex="-1"
   objectiveValue="7"
   solutionTypeValue="3"
   solutionTypeString="primal"
   solutionStatusValue="101"
   solutionStatusString="integer optimal solution"
   solutionMethodString="mip"
   primalFeasible="1"
   dualFeasible="1"
   MIPNodes="0"
   MIPIterations="11"
   writeLevel="3"/>
 <quality
   epInt="1.0000000000000001e-05"
   epRHS="9.9999999999999995e-07"
   maxIntInfeas="0"
   maxPrimalInfeas="0"
   maxX="3"
   maxSlack="9"/>
 <variables>
  <variable name="Y(3,7)" index="34" value="1"/>
  <variable name="Y(5,3)" index="58" value="1"/>
  <variable name="Y(7,5)" index="88" value="1"/>
  <variable name="Y(8,6)" index="103" value="1"/>
  <variable name="Y(10,1)" index="126" value="1"/>
  <variable name="Y(14,2)" index="183" value="1"/>
  <variable name="Y(17,4)" index="227" value="1"/>
  <variable name="X(1,2,3)" index="240" value="1"/>
  <variable name="X(1,8,10)" index="264" value="1"/>
  <variable name="X(2,1,10)" index="281" value="1"/>
  <variable name="X(2,3,5)" index="293" value="1"/>
  <variable name="X(2,4,17)" index="322" value="1"/>
  <variable name="X(2,6,8)" index="330" value="1"/>
  <variable name="X(2,7,3)" index="342" value="1"/>
  <variable name="X(2,9,14)" index="370" value="1"/>
  <variable name="X(3,10,5)" index="378" value="1"/>
  <variable name="X(4,2,10)" index="400" value="1"/>
  <variable name="X(4,5,7)" index="414" value="1"/>
  <variable name="X(4,11,17)" index="441" value="1"/>
  <variable name="X(5,4,10)" index="451" value="1"/>
  <variable name="X(5,12,7)" index="465" value="1"/>
  <variable name="X(6,2,14)" index="489" value="1"/>
  <variable name="X(6,13,8)" index="500" value="1"/>
  <variable name="X(7,2,17)" index="526" value="1"/>
  <variable name="X(7,14,3)" index="529" value="1"/>
  <variable name="C(3,2)" index="550" value="1"/>
  <variable name="C(3,7)" index="551" value="2"/>
  <variable name="C(5,3)" index="555" value="1"/>
  <variable name="C(7,5)" index="560" value="1"/>
  <variable name="C(8,6)" index="562" value="1"/>
  <variable name="C(10,4)" index="566" value="1"/>
  <variable name="C(10,2)" index="567" value="2"/>
  <variable name="C(10,1)" index="568" value="3"/>
  <variable name="C(14,2)" index="579" value="1"/>
  <variable name="C(17,2)" index="586" value="1"/>
  <variable name="C(17,4)" index="587" value="2"/>
 </variables>
</CPLEXSolution>
